NAME: tsp25_10
COMMENT: 25-tsp problem (Padberg/Rinaldi)
TYPE: TSP
DIMENSION: 25
EDGE_WEIGHT_TYPE : EUC_2D
NODE_COORD_SECTION
1 24 24
2 9 17
3 4 39
4 14 4
5 20 37
6 20 6
7 16 37
8 30 26
9 6 14
10 37 5
11 23 10
12 8 39
13 35 22
14 13 5
15 29 3
16 22 38
17 12 8
18 1 12
19 29 16
20 27 31
21 32 22
22 38 31
23 6 22
24 29 1
25 29 38
